p wcnf 167 334 335 
1 144 -41 0 
1 -124 37 0 
1 17 -136 0 
1 -11 105 0 
1 148 25 0 
1 -77 43 0 
1 19 126 0 
1 117 -65 0 
1 -142 -154 0 
1 -125 91 0 
1 49 43 0 
1 160 -76 0 
1 36 -68 0 
1 104 68 0 
1 -19 149 0 
1 62 -56 0 
1 -54 34 0 
1 50 -86 0 
1 71 -81 0 
1 130 -155 0 
1 31 128 0 
1 87 -5 0 
1 109 93 0 
1 42 15 0 
1 -131 -67 0 
1 -63 -73 0 
1 129 -32 0 
1 -41 -5 0 
1 140 69 0 
1 12 95 0 
1 106 -126 0 
1 38 164 0 
1 102 -127 0 
1 -138 6 0 
1 -57 -15 0 
1 90 -17 0 
1 -122 -19 0 
1 -77 -116 0 
1 -111 63 0 
1 -127 -86 0 
1 -8 -145 0 
1 21 44 0 
1 -167 2 0 
1 158 -121 0 
1 120 152 0 
1 -69 80 0 
1 131 -161 0 
1 124 -166 0 
1 58 -124 0 
1 61 85 0 
1 150 -28 0 
1 68 60 0 
1 96 113 0 
1 -150 141 0 
1 116 -167 0 
1 -48 147 0 
1 -125 -103 0 
1 -58 -64 0 
1 -156 10 0 
1 -133 -143 0 
1 124 71 0 
1 127 -110 0 
1 -63 -115 0 
1 3 -99 0 
1 75 161 0 
1 60 -165 0 
1 -135 -29 0 
1 -84 105 0 
1 -66 142 0 
1 -123 74 0 
1 -20 21 0 
1 -114 -53 0 
1 -59 36 0 
1 113 130 0 
1 -13 137 0 
1 -70 106 0 
1 2 -48 0 
1 79 -103 0 
1 144 -65 0 
1 -122 -164 0 
1 -41 158 0 
1 123 -152 0 
1 18 -54 0 
1 -78 145 0 
1 -123 -163 0 
1 126 144 0 
1 129 -22 0 
1 52 -81 0 
1 -83 -85 0 
1 153 166 0 
1 -67 -96 0 
1 27 153 0 
1 -164 -82 0 
1 134 119 0 
1 40 -139 0 
1 97 167 0 
1 119 -32 0 
1 65 -18 0 
1 -134 90 0 
1 -4 47 0 
1 121 17 0 
1 163 44 0 
1 -35 -16 0 
1 104 -130 0 
1 -10 31 0 
1 61 22 0 
1 136 64 0 
1 44 -47 0 
1 19 109 0 
1 -13 -101 0 
1 144 -83 0 
1 -142 44 0 
1 126 112 0 
1 -78 113 0 
1 106 156 0 
1 90 156 0 
1 167 -49 0 
1 -11 35 0 
1 -92 -44 0 
1 -14 -82 0 
1 -95 167 0 
1 -145 39 0 
1 10 -115 0 
1 -85 122 0 
1 32 18 0 
1 -77 -141 0 
1 -114 -103 0 
1 167 138 0 
1 42 65 0 
1 89 69 0 
1 -88 -72 0 
1 -44 -17 0 
1 -96 6 0 
1 40 138 0 
1 -5 54 0 
1 64 54 0 
1 95 -78 0 
1 -59 52 0 
1 -27 17 0 
1 76 89 0 
1 130 93 0 
1 -118 105 0 
1 139 44 0 
1 46 87 0 
1 -121 110 0 
1 -9 -14 0 
1 -128 81 0 
1 -112 -123 0 
1 -52 -29 0 
1 -131 -83 0 
1 19 152 0 
1 152 59 0 
1 10 149 0 
1 -100 97 0 
1 31 19 0 
1 -32 110 0 
1 97 -69 0 
1 21 -67 0 
1 -136 -47 0 
1 25 -109 0 
1 97 -98 0 
1 -15 -163 0 
1 159 -44 0 
1 -63 -53 0 
1 -167 -166 0 
1 96 -104 0 
1 66 46 0 
1 61 42 0 
1 -70 -66 0 
1 146 -113 0 
1 -17 80 0 
1 -167 -163 0 
1 27 44 0 
1 74 -6 0 
1 102 -53 0 
1 117 -42 0 
1 19 -111 0 
1 -27 -7 0 
1 -84 79 0 
1 149 24 0 
1 126 51 0 
1 42 82 0 
1 -55 33 0 
1 158 -75 0 
1 39 -120 0 
1 49 -165 0 
1 61 116 0 
1 -22 -85 0 
1 73 -38 0 
1 37 -52 0 
1 49 166 0 
1 -100 -57 0 
1 112 -73 0 
1 2 135 0 
1 161 30 0 
1 -107 53 0 
1 13 -15 0 
1 112 -63 0 
1 -105 -164 0 
1 -21 -54 0 
1 58 152 0 
1 135 -54 0 
1 -144 -147 0 
1 160 71 0 
1 -54 -55 0 
1 104 -71 0 
1 111 75 0 
1 -167 130 0 
1 -154 -139 0 
1 165 112 0 
1 44 11 0 
1 69 -28 0 
1 -80 122 0 
1 -138 145 0 
1 -69 -88 0 
1 -161 56 0 
1 -54 -94 0 
1 134 29 0 
1 7 128 0 
1 -61 58 0 
1 119 -18 0 
1 96 -105 0 
1 114 -69 0 
1 -147 -18 0 
1 33 70 0 
1 -78 33 0 
1 -133 167 0 
1 -110 -16 0 
1 -109 -81 0 
1 -5 -143 0 
1 53 152 0 
1 152 -20 0 
1 17 67 0 
1 59 41 0 
1 79 -59 0 
1 5 -11 0 
1 -68 88 0 
1 -18 44 0 
1 -159 44 0 
1 -40 -144 0 
1 -145 84 0 
1 -6 105 0 
1 164 7 0 
1 -77 -15 0 
1 80 -55 0 
1 99 -20 0 
1 -71 67 0 
1 -67 -84 0 
1 136 -32 0 
1 -83 -9 0 
1 124 32 0 
1 -126 10 0 
1 122 129 0 
1 -149 87 0 
1 50 -20 0 
1 89 -54 0 
1 -125 -130 0 
1 23 -70 0 
1 -144 -106 0 
1 31 94 0 
1 -165 17 0 
1 61 133 0 
1 144 -167 0 
1 21 137 0 
1 -60 -124 0 
1 112 -140 0 
1 -76 122 0 
1 58 74 0 
1 -128 -99 0 
1 -115 76 0 
1 76 -73 0 
1 46 162 0 
1 138 -144 0 
1 106 88 0 
1 -52 -136 0 
1 -112 6 0 
1 -74 97 0 
1 -70 12 0 
1 150 72 0 
1 157 87 0 
1 95 -19 0 
1 -53 -161 0 
1 -7 86 0 
1 -15 -146 0 
1 82 -71 0 
1 -10 -109 0 
1 -118 76 0 
1 -151 -126 0 
1 124 34 0 
1 116 -43 0 
1 46 -61 0 
1 -56 -40 0 
1 64 -56 0 
1 128 6 0 
1 50 -53 0 
1 131 6 0 
1 103 47 0 
1 -96 -137 0 
1 107 126 0 
1 35 -11 0 
1 134 124 0 
1 -92 -140 0 
1 127 163 0 
1 8 -23 0 
1 156 -57 0 
1 139 -9 0 
1 23 104 0 
1 28 -91 0 
1 -73 74 0 
1 133 -91 0 
1 -122 3 0 
1 84 19 0 
1 -56 41 0 
1 -60 162 0 
1 167 94 0 
1 -18 -62 0 
1 29 -167 0 
1 -41 -101 0 
1 -143 -5 0 
1 -66 133 0 
1 81 115 0 
1 -23 112 0 
1 -163 40 0 
1 112 7 0 
1 -31 124 0 
1 153 -126 0 
1 161 96 0 
1 140 -39 0 
1 100 -63 0 
1 75 -12 0 
1 25 147 0 
1 -82 -51 0 
1 -19 -156 0 
1 107 -131 0 
